
n_res = 4;
rcap = [21, 22, 595, 631];
rtype = [1, 1, 2, 2];
n_tasks = 100;
modes =  [{1, 2, 3}, {4, 5, 6}, {7, 8, 9}, {10, 11, 12}, {13, 14, 15}, {16, 17, 18}, {19, 20, 21}, {22, 23, 24}, {25, 26, 27}, {28, 29, 30}, {31, 32, 33}, {34, 35, 36}, {37, 38, 39}, {40, 41, 42}, {43, 44, 45}, {46, 47, 48}, {49, 50, 51}, {52, 53, 54}, {55, 56, 57}, {58, 59, 60}, {61, 62, 63}, {64, 65, 66}, {67, 68, 69}, {70, 71, 72}, {73, 74, 75}, {76, 77, 78}, {79, 80, 81}, {82, 83, 84}, {85, 86, 87}, {88, 89, 90}, {91, 92, 93}, {94, 95, 96}, {97, 98, 99}, {100, 101, 102}, {103, 104, 105}, {106, 107, 108}, {109, 110, 111}, {112, 113, 114}, {115, 116, 117}, {118, 119, 120}, {121, 122, 123}, {124, 125, 126}, {127, 128, 129}, {130, 131, 132}, {133, 134, 135}, {136, 137, 138}, {139, 140, 141}, {142, 143, 144}, {145, 146, 147}, {148, 149, 150}, {151, 152, 153}, {154, 155, 156}, {157, 158, 159}, {160, 161, 162}, {163, 164, 165}, {166, 167, 168}, {169, 170, 171}, {172, 173, 174}, {175, 176, 177}, {178, 179, 180}, {181, 182, 183}, {184, 185, 186}, {187, 188, 189}, {190, 191, 192}, {193, 194, 195}, {196, 197, 198}, {199, 200, 201}, {202, 203, 204}, {205, 206, 207}, {208, 209, 210}, {211, 212, 213}, {214, 215, 216}, {217, 218, 219}, {220, 221, 222}, {223, 224, 225}, {226, 227, 228}, {229, 230, 231}, {232, 233, 234}, {235, 236, 237}, {238, 239, 240}, {241, 242, 243}, {244, 245, 246}, {247, 248, 249}, {250, 251, 252}, {253, 254, 255}, {256, 257, 258}, {259, 260, 261}, {262, 263, 264}, {265, 266, 267}, {268, 269, 270}, {271, 272, 273}, {274, 275, 276}, {277, 278, 279}, {280, 281, 282}, {283, 284, 285}, {286, 287, 288}, {289, 290, 291}, {292, 293, 294}, {295, 296, 297}, {298, 299, 300}];
succ =  [{29, 24, 22, 17, 15, 14, 13, 12, 11}, {24, 23, 20, 19, 17, 16, 15, 14, 13}, {29, 17, 16, 15, 12, 7}, {29, 24, 15, 14, 13, 11}, {33, 29, 27, 24, 22, 18, 16, 14}, {28, 27, 26, 23, 15, 13}, {33, 22, 20, 18, 14}, {28, 26, 24, 15, 13}, {33, 29, 27, 26, 22, 18}, {33, 28, 24, 18, 16}, {42, 39, 35, 33, 31, 28, 27, 25}, {41, 39, 33, 30, 28, 27, 21}, {39, 34, 33, 31, 25, 21}, {39, 31, 28, 26, 21}, {33, 31, 18}, {39, 34, 25, 21}, {45, 41, 39, 35, 33, 32, 28, 27}, {41, 39, 34, 21}, {39, 33, 28, 25}, {47, 39, 37, 35, 34, 25}, {47, 45, 44, 43, 42, 38, 35, 32}, {44, 39, 37, 35, 31, 30}, {39, 37, 25}, {50, 47, 45, 44, 43, 38, 34, 32}, {49, 45, 44, 41, 36, 30}, {52, 50, 49, 45, 44, 41, 40, 38, 37}, {50, 44, 43, 36, 34}, {44, 37, 36, 34}, {68, 62, 61, 58, 54, 52, 51, 50, 47, 45, 43, 40}, {61, 54, 51, 50, 48, 43, 40, 38}, {57, 55, 50, 49, 47, 38, 36}, {49, 48, 40, 37, 36}, {61, 55, 52, 47, 38, 37}, {62, 60, 57, 51, 49, 46, 40}, {64, 63, 57, 56, 55, 54, 52, 51, 49}, {68, 63, 61, 58, 56, 54, 53, 52}, {68, 63, 58, 57, 54, 51, 46}, {68, 66, 64, 63, 62, 58, 46}, {64, 58, 57, 55, 54, 53, 52}, {66, 64, 63, 59, 56, 55, 53}, {69, 68, 67, 65, 64, 57, 54}, {66, 65, 60, 56, 50}, {64, 57, 46}, {67, 63, 61, 54, 53}, {72, 70, 67, 66, 64, 63, 55}, {59, 56, 53}, {73, 71, 65, 59, 56}, {67, 66, 60, 53}, {81, 78, 74, 72, 70, 68, 58}, {72, 69, 67, 64, 59}, {67, 59, 53}, {78, 73, 71, 69, 67, 65, 60}, {85, 78, 75, 74, 73, 71, 70, 69, 65}, {75, 71, 66, 59}, {85, 78, 74, 73, 71, 69, 65}, {74, 72, 70, 69, 67}, {85, 83, 80, 78, 74, 72, 71}, {77, 75, 73, 71, 69, 67}, {89, 85, 81, 78, 76, 74, 70}, {88, 85, 81, 76, 75, 74, 70}, {85, 83, 81, 80, 75, 74, 71}, {85, 81, 77, 75, 73, 69}, {85, 81, 80, 77, 76, 75, 73}, {81, 73, 71}, {90, 88, 83, 81, 80, 77, 76}, {90, 89, 87, 83, 80, 77, 76}, {90, 88, 87, 85, 84, 76}, {90, 89, 87, 85, 84, 77}, {90, 87, 83, 80, 76}, {90, 87, 83, 80, 79}, {90, 88, 84, 76}, {79, 75}, {89, 83, 79}, {77}, {93, 90, 89, 87}, {79}, {79}, {100, 95, 90, 88, 87}, {96, 86, 82}, {100, 96, 93, 92, 84}, {95, 87, 86}, {95, 94, 93, 92, 91}, {100, 96, 95, 94, 91}, {98, 95, 94, 91}, {96, 94, 91}, {100, 98, 91}, {96, 94, 92}, {99, 98, 97}, {100, 95}, {91}, {99, 97}, {98, 97}, {98, 97}, {97}, {97}, {98}, {}, {}, {}, {}];
n_opt = 300;
dur = [3, 7, 8, 1, 5, 7, 1, 5, 10, 3, 7, 8, 1, 3, 6, 4, 8, 10, 3, 7, 8, 3, 6, 10, 1, 6, 10, 5, 6, 10, 4, 8, 10, 3, 6, 7, 1, 4, 9, 1, 9, 10, 6, 7, 9, 7, 8, 9, 1, 7, 9, 2, 5, 9, 4, 5, 9, 3, 8, 10, 1, 5, 9, 4, 5, 8, 1, 6, 7, 1, 2, 3, 5, 6, 9, 3, 4, 9, 5, 6, 10, 4, 5, 6, 3, 4, 5, 1, 5, 10, 1, 4, 10, 3, 9, 10, 3, 7, 10, 2, 5, 7, 2, 7, 8, 2, 6, 10, 1, 5, 10, 2, 6, 7, 4, 6, 10, 1, 2, 7, 6, 7, 10, 1, 2, 6, 3, 6, 8, 1, 3, 9, 4, 5, 10, 2, 5, 6, 4, 5, 6, 1, 2, 7, 5, 6, 10, 3, 9, 10, 5, 9, 10, 7, 9, 10, 2, 6, 10, 1, 2, 8, 2, 4, 5, 2, 3, 5, 7, 8, 9, 3, 5, 6, 7, 8, 10, 5, 6, 10, 2, 8, 9, 3, 5, 6, 3, 4, 5, 3, 4, 7, 6, 7, 8, 1, 2, 9, 2, 3, 4, 2, 3, 7, 3, 4, 9, 2, 6, 7, 1, 6, 10, 3, 4, 5, 1, 2, 5, 3, 8, 10, 1, 5, 7, 4, 5, 9, 2, 9, 10, 3, 5, 7, 1, 2, 3, 5, 8, 9, 2, 7, 10, 1, 3, 5, 3, 5, 10, 3, 4, 10, 7, 8, 9, 3, 4, 5, 2, 3, 7, 2, 3, 10, 4, 8, 9, 4, 8, 10, 5, 9, 10, 3, 8, 9, 6, 7, 8, 2, 3, 4, 2, 7, 8, 6, 7, 8, 1, 3, 4, 5, 6, 7, 1, 3, 6, 2, 3, 7];
rreq = [|4, 3, 2, 1, 1, 1, 4, 4, 3, 5, 5, 5, 3, 1, 1, 5, 4, 4, 5, 4, 3, 2, 1, 1, 3, 2, 2, 4, 4, 4, 3, 1, 1, 2, 2, 1, 4, 2, 2, 5, 5, 5, 3, 3, 3, 4, 3, 3, 1, 1, 1, 2, 1, 1, 4, 3, 3, 2, 1, 1, 3, 2, 1, 4, 4, 4, 3, 1, 1, 5, 4, 4, 2, 2, 1, 3, 3, 2, 4, 3, 3, 5, 3, 1, 2, 2, 1, 4, 2, 1, 2, 2, 1, 3, 2, 2, 4, 4, 4, 2, 2, 2, 4, 3, 3, 4, 2, 1, 4, 3, 2, 4, 3, 3, 3, 3, 2, 3, 2, 2, 3, 3, 3, 4, 3, 1, 5, 3, 3, 3, 3, 2, 4, 3, 3, 3, 3, 3, 5, 5, 5, 4, 3, 3, 4, 2, 2, 2, 2, 2, 4, 4, 3, 4, 2, 2, 5, 5, 5, 2, 2, 2, 5, 4, 4, 3, 3, 1, 3, 3, 3, 4, 4, 4, 4, 3, 2, 4, 2, 1, 4, 3, 3, 4, 3, 1, 4, 3, 3, 2, 2, 2, 1, 1, 1, 3, 3, 3, 5, 3, 3, 5, 5, 5, 3, 3, 3, 2, 2, 1, 5, 4, 3, 3, 2, 2, 4, 3, 3, 2, 2, 2, 5, 4, 4, 3, 2, 1, 4, 4, 4, 5, 5, 5, 3, 3, 2, 4, 4, 3, 3, 3, 3, 5, 5, 5, 3, 3, 3, 3, 3, 1, 5, 3, 2, 4, 2, 1, 3, 3, 3, 5, 3, 3, 4, 4, 3, 5, 4, 4, 2, 1, 1, 5, 3, 2, 3, 1, 1, 2, 2, 2, 4, 3, 1, 3, 2, 2, 2, 1, 1, 3, 3, 3, 2, 1, 1, 3, 3, 3
 |4, 4, 4, 5, 4, 4, 4, 3, 1, 3, 3, 3, 3, 3, 3, 5, 4, 2, 4, 4, 4, 3, 2, 2, 3, 3, 3, 1, 1, 1, 4, 4, 4, 3, 3, 3, 4, 4, 4, 5, 4, 4, 4, 4, 2, 2, 1, 1, 4, 4, 4, 4, 3, 3, 1, 1, 1, 3, 3, 3, 3, 3, 3, 4, 4, 3, 5, 5, 5, 3, 2, 2, 2, 2, 2, 2, 2, 2, 3, 2, 2, 5, 4, 4, 5, 2, 1, 4, 4, 4, 2, 1, 1, 1, 1, 1, 3, 2, 2, 4, 4, 3, 3, 3, 3, 4, 4, 3, 3, 2, 1, 3, 3, 3, 3, 2, 2, 4, 4, 4, 4, 3, 2, 5, 5, 5, 3, 3, 2, 5, 4, 3, 2, 2, 2, 3, 3, 3, 1, 1, 1, 5, 4, 4, 4, 4, 4, 3, 3, 3, 5, 4, 2, 4, 4, 4, 4, 4, 4, 4, 4, 4, 3, 2, 1, 4, 4, 4, 4, 2, 2, 3, 2, 2, 4, 2, 1, 4, 3, 2, 3, 3, 3, 4, 3, 2, 4, 2, 2, 3, 3, 3, 1, 1, 1, 3, 3, 2, 4, 4, 4, 4, 4, 4, 3, 3, 3, 4, 3, 3, 3, 3, 3, 2, 1, 1, 4, 3, 2, 3, 3, 3, 4, 4, 4, 1, 1, 1, 4, 4, 4, 5, 4, 3, 4, 3, 2, 4, 3, 3, 3, 2, 2, 4, 4, 4, 4, 4, 3, 1, 1, 1, 2, 2, 2, 5, 5, 5, 2, 2, 1, 4, 3, 3, 2, 2, 2, 2, 1, 1, 4, 4, 4, 5, 5, 5, 4, 3, 3, 3, 3, 3, 4, 3, 2, 2, 2, 1, 1, 1, 1, 4, 4, 4, 3, 2, 2, 4, 3, 1
 |7, 6, 4, 4, 4, 4, 7, 6, 6, 6, 5, 4, 9, 5, 3, 7, 4, 3, 3, 2, 2, 8, 6, 6, 8, 8, 8, 6, 3, 1, 10, 6, 6, 6, 3, 2, 3, 2, 2, 6, 5, 3, 9, 6, 5, 9, 9, 9, 7, 7, 6, 8, 5, 4, 6, 5, 5, 8, 4, 3, 8, 7, 6, 9, 8, 8, 5, 4, 3, 4, 2, 1, 7, 6, 6, 6, 6, 4, 6, 5, 4, 8, 8, 7, 8, 4, 4, 4, 4, 4, 3, 3, 3, 10, 9, 8, 10, 8, 7, 5, 3, 1, 2, 2, 2, 3, 3, 3, 3, 3, 2, 8, 6, 4, 7, 6, 6, 10, 8, 8, 2, 2, 2, 4, 3, 1, 10, 6, 2, 10, 9, 9, 10, 7, 5, 2, 2, 2, 4, 3, 3, 8, 8, 8, 7, 4, 3, 9, 8, 5, 9, 8, 8, 7, 5, 4, 4, 4, 2, 10, 4, 2, 5, 5, 5, 2, 2, 2, 7, 6, 6, 8, 7, 7, 9, 8, 8, 5, 3, 3, 7, 6, 6, 10, 7, 3, 4, 4, 4, 8, 4, 4, 3, 3, 3, 9, 8, 8, 6, 5, 5, 7, 7, 2, 3, 3, 1, 5, 4, 3, 4, 4, 3, 5, 5, 5, 8, 8, 7, 6, 6, 6, 8, 7, 6, 6, 6, 5, 4, 2, 1, 10, 6, 6, 4, 3, 3, 6, 5, 3, 5, 4, 2, 10, 9, 7, 10, 9, 8, 5, 3, 3, 6, 5, 4, 10, 4, 3, 10, 7, 5, 8, 5, 4, 6, 5, 5, 8, 8, 7, 4, 4, 4, 8, 8, 8, 6, 6, 3, 4, 4, 4, 7, 6, 2, 5, 4, 4, 6, 3, 3, 3, 3, 3, 4, 3, 3, 7, 5, 2
 |8, 8, 6, 3, 3, 2, 5, 5, 5, 7, 6, 3, 9, 7, 5, 8, 5, 3, 9, 9, 9, 10, 10, 9, 4, 3, 2, 2, 1, 1, 9, 8, 7, 6, 6, 6, 3, 2, 1, 10, 7, 3, 2, 2, 2, 8, 6, 5, 8, 7, 6, 9, 9, 9, 4, 3, 2, 6, 6, 6, 4, 3, 2, 5, 5, 4, 7, 5, 4, 8, 4, 1, 6, 4, 3, 2, 1, 2, 5, 4, 3, 3, 3, 1, 3, 3, 3, 8, 4, 2, 5, 5, 3, 5, 4, 4, 6, 4, 3, 8, 8, 7, 9, 9, 8, 7, 4, 2, 10, 8, 7, 7, 6, 6, 7, 7, 7, 9, 8, 7, 5, 4, 2, 7, 5, 3, 2, 2, 2, 9, 9, 9, 10, 7, 5, 10, 5, 1, 6, 6, 5, 7, 6, 5, 9, 7, 5, 2, 1, 1, 8, 6, 6, 6, 5, 3, 4, 2, 2, 7, 4, 3, 10, 7, 1, 6, 5, 4, 8, 5, 4, 9, 6, 5, 9, 9, 9, 5, 3, 2, 3, 3, 1, 10, 5, 3, 4, 2, 1, 6, 4, 3, 9, 7, 6, 4, 3, 3, 2, 2, 1, 9, 8, 9, 8, 4, 2, 7, 6, 4, 10, 6, 5, 8, 7, 6, 9, 8, 7, 8, 7, 6, 7, 7, 7, 7, 7, 7, 6, 4, 3, 10, 8, 8, 9, 5, 5, 7, 5, 5, 5, 4, 2, 9, 8, 8, 8, 8, 7, 8, 7, 5, 4, 3, 2, 7, 7, 6, 9, 8, 8, 8, 6, 4, 10, 7, 6, 6, 5, 5, 8, 4, 3, 8, 5, 3, 7, 5, 3, 10, 5, 4, 9, 6, 2, 8, 4, 2, 9, 9, 8, 7, 5, 4, 9, 8, 7, 8, 7, 7|];